param set_len = 48;
param target_sum = 10359537115;
param values := [1] 324894722 [2] 448440719 [3] 255031633 [4] 255549100 [5] 513945995 [6] 573495685 [7] 851212441 [8] 323785737 [9] 250940763 [10] 338603697 [11] 203939603 [12] 133382004 [13] 117484599 [14] 92396915 [15] 264475252 [16] 190772746 [17] 626917341 [18] 714570114 [19] 1000752178 [20] 607200215 [21] 997218054 [22] 158604689 [23] 568729133 [24] 546384409 [25] 162843315 [26] 551527504 [27] 781338669 [28] 756860520 [29] 12223794 [30] 410889283 [31] 128737662 [32] 384573255 [33] 696163067 [34] 920226567 [35] 701522438 [36] 274095271 [37] 812018683 [38] 1030587417 [39] 774753773 [40] 213059030 [41] 649833846 [42] 84423832 [43] 659891851 [44] 497369105 [45] 119405074 [46] 68860227 [47] 292337988 [48] 1010465390 ;
